100
1948
5
45
51
17
57
90
0 3
0 4
0 5
0 6
0 8
0 11
0 13
0 17
0 19
0 20
0 22
0 25
0 28
0 29
0 31
0 32
0 33
0 34
0 37
0 44
0 50
0 58
0 59
0 60
0 61
0 62
0 65
0 66
0 69
0 78
0 82
0 84
0 88
0 89
0 91
0 92
0 93
0 94
0 96
0 99
1 2
1 3
1 6
1 7
1 10
1 11
1 13
1 14
1 16
1 18
1 23
1 24
1 25
1 29
1 33
1 34
1 35
1 40
1 41
1 48
1 52
1 53
1 55
1 57
1 58
1 61
1 64
1 70
1 76
1 79
1 87
1 91
1 92
1 96
1 97
2 4
2 6
2 8
2 9
2 12
2 24
2 26
2 27
2 36
2 38
2 41
2 43
2 45
2 49
2 50
2 54
2 58
2 63
2 65
2 67
2 68
2 70
2 74
2 75
2 83
2 95
2 97
2 98
2 99
3 7
3 8
3 9
3 11
3 12
3 14
3 16
3 18
3 20
3 21
3 23
3 24
3 26
3 30
3 32
3 37
3 40
3 41
3 42
3 43
3 44
3 46
3 48
3 51
3 53
3 54
3 55
3 59
3 64
3 68
3 69
3 70
3 72
3 73
3 75
3 76
3 82
3 84
3 87
3 88
3 89
3 91
3 93
3 94
3 96
3 97
3 99
4 5
4 7
4 9
4 11
4 16
4 19
4 20
4 21
4 23
4 26
4 27
4 29
4 30
4 34
4 39
4 40
4 45
4 46
4 47
4 50
4 51
4 53
4 54
4 58
4 59
4 63
4 64
4 66
4 67
4 68
4 72
4 75
4 77
4 78
4 80
4 81
4 82
4 87
4 89
4 90
4 91
4 98
4 99
5 7
5 10
5 14
5 18
5 23
5 30
5 35
5 37
5 39
5 41
5 42
5 43
5 44
5 45
5 46
5 48
5 51
5 53
5 54
5 55
5 56
5 59
5 61
5 64
5 65
5 66
5 67
5 72
5 73
5 75
5 76
5 81
5 82
5 84
5 90
5 91
5 93
5 94
5 95
5 97
6 7
6 9
6 14
6 15
6 16
6 17
6 20
6 26
6 27
6 28
6 29
6 35
6 36
6 38
6 39
6 40
6 47
6 51
6 55
6 56
6 58
6 62
6 65
6 67
6 69
6 70
6 71
6 73
6 78
6 80
6 83
6 86
6 87
6 91
6 95
7 8
7 12
7 13
7 16
7 23
7 28
7 37
7 38
7 39
7 42
7 52
7 53
7 54
7 56
7 58
7 63
7 66
7 68
7 71
7 72
7 73
7 75
7 76
7 77
7 78
7 80
7 82
7 84
7 85
7 88
7 89
7 90
7 93
7 95
7 98
8 9
8 11
8 12
8 13
8 14
8 15
8 18
8 20
8 24
8 25
8 26
8 37
8 45
8 46
8 51
8 52
8 55
8 60
8 61
8 62
8 65
8 66
8 67
8 71
8 72
8 74
8 76
8 86
8 87
8 89
8 93
8 95
8 97
8 99
9 11
9 16
9 17
9 25
9 31
9 33
9 40
9 42
9 44
9 47
9 55
9 57
9 58
9 59
9 61
9 62
9 64
9 65
9 67
9 69
9 71
9 72
9 74
9 75
9 76
9 77
9 78
9 79
9 81
9 84
9 87
9 88
9 89
9 90
9 91
9 94
9 96
9 97
9 98
10 14
10 17
10 18
10 19
10 22
10 24
10 25
10 26
10 27
10 29
10 31
10 34
10 35
10 37
10 40
10 43
10 45
10 47
10 50
10 51
10 58
10 59
10 66
10 72
10 79
10 82
10 83
10 85
10 90
10 92
10 93
10 98
11 13
11 14
11 19
11 21
11 23
11 24
11 29
11 32
11 34
11 36
11 39
11 41
11 43
11 45
11 46
11 47
11 48
11 49
11 55
11 58
11 60
11 61
11 64
11 67
11 70
11 72
11 73
11 74
11 78
11 79
11 80
11 83
11 87
11 95
11 96
12 14
12 15
12 17
12 18
12 21
12 23
12 24
12 30
12 31
12 32
12 33
12 38
12 40
12 42
12 47
12 48
12 52
12 53
12 55
12 57
12 60
12 61
12 63
12 65
12 66
12 69
12 71
12 72
12 75
12 77
12 79
12 81
12 82
12 86
12 89
12 91
12 93
12 94
12 95
12 99
13 16
13 18
13 19
13 20
13 21
13 22
13 25
13 26
13 28
13 29
13 30
13 32
13 33
13 37
13 41
13 43
13 46
13 47
13 49
13 52
13 54
13 55
13 57
13 59
13 62
13 66
13 67
13 68
13 74
13 76
13 79
13 82
13 87
13 88
13 90
13 93
13 96
13 97
13 98
14 15
14 16
14 17
14 22
14 27
14 29
14 37
14 38
14 42
14 43
14 47
14 48
14 49
14 51
14 53
14 56
14 58
14 59
14 60
14 61
14 62
14 63
14 65
14 66
14 68
14 69
14 70
14 74
14 75
14 77
14 87
14 88
14 90
14 94
15 16
15 17
15 18
15 19
15 20
15 26
15 27
15 29
15 31
15 32
15 35
15 36
15 37
15 38
15 39
15 45
15 54
15 55
15 59
15 62
15 64
15 70
15 72
15 80
15 81
15 83
15 84
15 86
15 87
15 88
15 89
15 90
15 98
16 17
16 20
16 25
16 26
16 27
16 29
16 35
16 44
16 48
16 49
16 51
16 52
16 54
16 57
16 59
16 66
16 69
16 72
16 76
16 79
16 80
16 82
16 85
16 89
16 91
16 92
16 95
16 96
16 97
16 98
17 18
17 20
17 27
17 28
17 30
17 32
17 37
17 38
17 40
17 41
17 48
17 53
17 56
17 57
17 62
17 65
17 67
17 70
17 71
17 72
17 74
17 76
17 81
17 85
17 90
17 91
17 93
17 94
17 95
17 98
18 19
18 20
18 22
18 23
18 27
18 30
18 35
18 36
18 37
18 38
18 39
18 40
18 41
18 42
18 45
18 47
18 49
18 50
18 52
18 53
18 54
18 56
18 57
18 60
18 61
18 62
18 65
18 67
18 68
18 69
18 70
18 73
18 76
18 78
18 80
18 82
18 86
18 87
18 88
18 91
18 92
18 93
18 94
18 95
18 96
18 97
18 98
19 20
19 21
19 22
19 23
19 27
19 31
19 32
19 33
19 37
19 39
19 41
19 43
19 51
19 53
19 55
19 58
19 59
19 60
19 61
19 63
19 65
19 70
19 72
19 77
19 78
19 79
19 80
19 81
19 85
19 88
19 91
19 92
19 95
20 21
20 23
20 24
20 27
20 31
20 32
20 33
20 35
20 39
20 48
20 52
20 53
20 57
20 58
20 59
20 61
20 62
20 64
20 69
20 70
20 72
20 73
20 77
20 78
20 81
20 83
20 84
20 87
20 90
20 91
20 92
20 94
20 96
20 99
21 27
21 28
21 32
21 33
21 34
21 40
21 48
21 49
21 50
21 54
21 57
21 58
21 59
21 61
21 62
21 63
21 64
21 66
21 68
21 70
21 73
21 74
21 75
21 79
21 80
21 81
21 83
21 84
21 87
21 92
21 95
21 99
22 25
22 30
22 31
22 32
22 35
22 37
22 38
22 46
22 47
22 48
22 49
22 51
22 56
22 64
22 66
22 76
22 77
22 78
22 80
22 84
22 85
22 87
22 88
22 90
22 93
22 95
22 99
23 26
23 29
23 30
23 33
23 36
23 42
23 43
23 45
23 46
23 47
23 50
23 53
23 55
23 60
23 62
23 63
23 66
23 67
23 75
23 76
23 77
23 79
23 81
23 84
23 87
23 88
23 91
23 94
23 97
23 99
24 32
24 34
24 35
24 37
24 40
24 41
24 47
24 55
24 57
24 58
24 60
24 62
24 65
24 66
24 68
24 69
24 71
24 75
24 82
24 83
24 84
24 86
24 87
24 89
24 93
24 94
24 95
24 96
24 99
25 28
25 30
25 31
25 32
25 34
25 35
25 37
25 38
25 41
25 42
25 43
25 49
25 50
25 55
25 58
25 59
25 61
25 62
25 63
25 66
25 70
25 76
25 78
25 79
25 83
25 86
25 87
25 88
25 90
25 92
25 98
26 28
26 30
26 33
26 35
26 37
26 39
26 40
26 43
26 46
26 47
26 53
26 54
26 57
26 62
26 63
26 64
26 65
26 67
26 70
26 71
26 73
26 75
26 77
26 79
26 81
26 82
26 85
26 86
26 89
26 93
26 94
26 98
26 99
27 28
27 29
27 32
27 34
27 36
27 38
27 44
27 46
27 48
27 49
27 54
27 58
27 67
27 69
27 71
27 73
27 76
27 78
27 79
27 80
27 82
27 84
27 85
27 86
27 87
27 91
27 96
28 29
28 34
28 35
28 38
28 42
28 43
28 45
28 47
28 48
28 51
28 56
28 58
28 60
28 64
28 66
28 67
28 71
28 72
28 74
28 75
28 76
28 79
28 81
28 82
28 83
28 86
28 87
28 92
28 93
28 99
29 31
29 32
29 34
29 36
29 39
29 40
29 42
29 44
29 46
29 47
29 48
29 49
29 52
29 55
29 59
29 60
29 63
29 66
29 69
29 70
29 71
29 73
29 75
29 76
29 77
29 81
29 82
29 84
29 90
29 91
29 94
29 95
29 97
29 99
30 33
30 34
30 37
30 38
30 42
30 44
30 52
30 53
30 55
30 57
30 58
30 60
30 62
30 63
30 64
30 66
30 67
30 68
30 70
30 75
30 77
30 78
30 80
30 81
30 82
30 86
30 89
30 90
30 93
30 97
30 98
31 35
31 40
31 41
31 42
31 43
31 45
31 47
31 49
31 52
31 54
31 55
31 56
31 58
31 62
31 65
31 72
31 73
31 75
31 76
31 77
31 79
31 84
31 85
31 90
31 92
31 93
31 95
31 96
31 98
32 40
32 41
32 42
32 43
32 45
32 47
32 48
32 52
32 54
32 56
32 57
32 58
32 67
32 68
32 69
32 73
32 80
32 81
32 87
32 88
32 89
32 94
32 95
32 97
32 99
33 37
33 38
33 39
33 42
33 43
33 44
33 46
33 47
33 50
33 52
33 57
33 58
33 59
33 60
33 64
33 65
33 66
33 68
33 71
33 74
33 81
33 82
33 83
33 84
33 85
33 86
33 88
33 90
33 91
33 93
33 96
33 97
33 98
34 36
34 37
34 41
34 42
34 43
34 44
34 47
34 51
34 53
34 57
34 63
34 65
34 66
34 68
34 69
34 70
34 74
34 75
34 76
34 78
34 85
34 89
34 92
34 96
35 43
35 45
35 48
35 49
35 52
35 55
35 56
35 58
35 59
35 60
35 62
35 64
35 65
35 69
35 70
35 74
35 75
35 76
35 79
35 81
35 84
35 86
35 89
35 91
35 92
35 94
35 95
35 98
36 37
36 39
36 45
36 47
36 48
36 50
36 54
36 60
36 64
36 68
36 69
36 72
36 73
36 74
36 75
36 80
36 82
36 87
36 92
36 97
37 45
37 46
37 48
37 49
37 50
37 52
37 53
37 55
37 56
37 57
37 58
37 59
37 60
37 64
37 65
37 68
37 69
37 70
37 71
37 73
37 75
37 77
37 78
37 79
37 84
37 85
37 89
37 90
37 93
37 94
37 98
37 99
38 39
38 41
38 46
38 48
38 57
38 58
38 60
38 61
38 63
38 67
38 68
38 72
38 79
38 80
38 82
38 83
38 94
39 41
39 42
39 43
39 45
39 48
39 49
39 51
39 53
39 55
39 56
39 62
39 64
39 65
39 70
39 75
39 77
39 87
39 89
39 91
39 92
39 93
39 95
39 97
39 98
40 42
40 43
40 44
40 50
40 51
40 52
40 54
40 55
40 59
40 60
40 61
40 63
40 69
40 70
40 75
40 82
40 85
40 86
40 87
40 92
40 93
41 42
41 43
41 45
41 46
41 47
41 48
41 50
41 53
41 55
41 56
41 59
41 60
41 63
41 66
41 68
41 71
41 74
41 78
41 79
41 80
41 82
41 84
41 86
41 87
41 89
41 91
41 92
41 98
42 47
42 49
42 52
42 56
42 57
42 58
42 60
42 68
42 71
42 73
42 74
42 77
42 81
42 83
42 84
42 86
42 87
42 89
42 90
42 91
42 93
42 94
43 46
43 47
43 48
43 50
43 51
43 53
43 55
43 56
43 59
43 61
43 64
43 66
43 69
43 73
43 74
43 76
43 78
43 79
43 82
43 87
43 88
43 90
43 94
44 46
44 47
44 52
44 53
44 55
44 58
44 65
44 73
44 74
44 76
44 77
44 78
44 80
44 86
44 88
44 90
44 92
44 93
44 95
44 97
44 98
45 48
45 51
45 60
45 62
45 65
45 74
45 75
45 76
45 80
45 81
45 83
45 87
45 93
45 96
45 97
46 49
46 52
46 55
46 59
46 60
46 62
46 63
46 65
46 66
46 72
46 85
46 86
46 87
46 90
46 98
47 48
47 55
47 56
47 60
47 61
47 62
47 65
47 67
47 68
47 70
47 72
47 73
47 74
47 75
47 77
47 78
47 81
47 84
47 87
47 88
47 89
47 90
47 91
47 94
47 96
47 98
48 49
48 61
48 62
48 63
48 65
48 67
48 69
48 73
48 74
48 76
48 79
48 81
48 83
48 86
48 87
48 95
49 50
49 51
49 52
49 55
49 56
49 57
49 58
49 59
49 61
49 65
49 70
49 71
49 72
49 74
49 77
49 79
49 85
49 86
49 87
49 91
49 93
49 94
50 52
50 53
50 56
50 60
50 65
50 66
50 72
50 73
50 75
50 76
50 78
50 79
50 83
50 85
50 87
50 93
50 95
50 96
50 97
51 52
51 56
51 58
51 59
51 61
51 67
51 71
51 73
51 76
51 77
51 87
51 92
51 97
52 55
52 56
52 57
52 63
52 64
52 65
52 66
52 75
52 81
52 83
52 85
52 87
53 57
53 58
53 63
53 68
53 73
53 76
53 77
53 80
53 86
53 94
53 96
54 59
54 60
54 61
54 65
54 66
54 67
54 70
54 71
54 78
54 80
54 82
54 87
54 90
54 94
54 96
54 98
55 56
55 58
55 59
55 61
55 63
55 69
55 70
55 73
55 74
55 75
55 79
55 80
55 84
55 91
55 98
56 60
56 62
56 63
56 66
56 73
56 74
56 78
56 81
56 82
56 88
56 89
56 91
56 92
56 95
56 98
57 59
57 61
57 66
57 68
57 76
57 78
57 81
57 89
57 90
57 91
57 92
57 94
57 95
57 99
58 61
58 63
58 66
58 67
58 71
58 78
58 80
58 88
58 90
58 92
58 94
59 63
59 67
59 68
59 70
59 71
59 72
59 75
59 76
59 77
59 78
59 80
59 81
59 83
59 84
59 85
59 86
59 87
59 88
59 92
59 93
59 94
59 95
59 96
59 97
59 99
60 63
60 64
60 65
60 69
60 70
60 73
60 75
60 80
60 81
60 86
60 89
60 90
60 95
60 99
61 62
61 64
61 67
61 68
61 70
61 72
61 77
61 78
61 79
61 87
61 88
61 91
61 92
61 96
61 97
61 99
62 63
62 65
62 66
62 84
62 85
62 87
62 90
62 91
62 96
62 98
63 64
63 69
63 74
63 79
63 83
63 86
63 94
63 95
63 99
64 65
64 68
64 75
64 76
64 77
64 78
64 88
64 90
64 94
64 97
65 67
65 69
65 73
65 77
65 83
65 85
65 87
65 89
65 94
65 95
65 97
65 98
65 99
66 68
66 73
66 77
66 79
66 80
66 82
66 83
66 84
66 86
66 88
66 89
66 90
66 91
66 98
67 69
67 71
67 72
67 75
67 76
67 77
67 79
67 81
67 83
67 84
67 87
67 88
67 94
67 99
68 72
68 73
68 74
68 75
68 76
68 83
68 84
68 87
68 89
68 90
68 92
68 94
68 96
69 71
69 75
69 77
69 78
69 80
69 84
69 89
69 91
69 93
69 94
69 97
69 99
70 72
70 74
70 82
70 84
70 91
70 96
70 99
71 73
71 75
71 77
71 79
71 82
71 85
71 91
71 92
71 96
71 97
72 73
72 74
72 75
72 79
72 80
72 82
72 84
72 86
72 88
72 89
72 91
72 92
72 98
73 74
73 77
73 79
73 80
73 82
73 83
73 85
73 88
73 89
73 90
73 93
73 95
74 78
74 82
74 91
74 92
74 93
74 94
74 98
75 77
75 78
75 80
75 81
75 82
75 87
75 90
75 94
75 95
75 96
75 97
75 98
75 99
76 78
76 82
76 83
76 84
76 87
76 91
76 97
77 79
77 81
77 84
77 89
77 90
77 91
77 92
77 94
77 95
77 96
77 98
77 99
78 82
78 83
78 87
78 88
78 90
78 91
78 92
78 98
78 99
79 80
79 82
79 84
79 86
79 92
79 94
79 96
79 98
80 81
80 86
80 88
80 94
80 98
81 83
81 85
81 88
82 85
82 86
82 98
82 99
83 88
83 89
83 92
83 94
83 96
84 87
84 88
84 89
84 94
84 95
84 96
85 86
85 89
85 93
85 95
85 96
85 97
85 99
86 87
86 92
86 94
86 98
86 99
87 88
87 89
87 93
87 95
87 96
88 90
88 94
88 97
89 92
89 93
89 94
89 98
90 92
90 95
90 96
90 99
91 92
91 95
92 94
92 95
92 96
93 95
93 96
93 99
94 95
94 97
95 98
95 99
96 98
96 99
84 58 30 21 59 99 48 45 80 33 36 82 56 76 89 83 10 51 95 71
23 5 49 14 96 46 0 17 86 90 66 67 47 78 98 8 15 87 93 97
43 3 6 24 31 92 29 18 42 28 22 64 85 37 2 1 57 74 34 40
75 19 63 79 65 16 50 27 11 53 20 13 88 72 69 73 61 81 4 77
39 91 7 38 70 55 94 35 68 60 32 12 62 25 54 9 52 44 41 26
